GLPSOL--GLPK LP/MIP Solver 5.0
Parameter(s) specified in the command line:
 --lp ../modeles/2_309.lp --log 2_309.log
Reading problem data from '../modeles/2_309.lp'...
627 rows, 1240 columns, 4336 non-zeros
618 integer variables, all of which are binary
1875 lines were read
GLPK Integer Optimizer 5.0
627 rows, 1240 columns, 4336 non-zeros
618 integer variables, all of which are binary
Preprocessing...
612 constraint coefficient(s) were reduced
627 rows, 1238 columns, 4334 non-zeros
618 integer variables, all of which are binary
Scaling...
 A: min|aij| =  4.189e-05  max|aij| =  4.000e+00  ratio =  9.548e+04
GM: min|aij| =  5.689e-02  max|aij| =  1.758e+01  ratio =  3.090e+02
EQ: min|aij| =  3.236e-03  max|aij| =  1.000e+00  ratio =  3.090e+02
2N: min|aij| =  2.681e-03  max|aij| =  1.759e+00  ratio =  6.560e+02
Constructing initial basis...
Size of triangular part is 627
Solving LP relaxation...
GLPK Simplex Optimizer 5.0
627 rows, 1238 columns, 4334 non-zeros
      0: obj =   4.000000000e+00 inf =   9.500e+00 (5)
     37: obj =   4.999633431e-01 inf =   0.000e+00 (0)
*   145: obj =  -1.414187996e+00 inf =   6.141e-16 (0)
OPTIMAL LP SOLUTION FOUND
Integer optimization begins...
Long-step dual simplex will be used
+   145: mip =     not found yet >=              -inf        (1; 0)
+   197: >>>>>  -1.414187996e+00 >=  -1.414187996e+00 < 0.1% (53; 0)
+   197: mip =  -1.414187996e+00 >=     tree is empty   0.0% (0; 105)
INTEGER OPTIMAL SOLUTION FOUND
Time used:   0.0 secs
Memory used: 1.8 Mb (1911036 bytes)
